NAME: pr107
DIMENSION: 18
EDGE_WEIGHT_TYPE: EUC_2D
NODE_COORD_SECTION
1 8375 4700
2 8775 4700
3 8375 4900
4 8175 4900
5 8775 4900
6 8575 4900
7 8775 5400
8 8375 5450
9 8775 5600
10 8575 5600
11 8375 5650
12 8175 5650
13 8375 6200
14 8775 6200
15 8375 6400
16 8175 6400
17 8775 6400
18 8575 6400
ACCEPTED_PROBABILITIES
0.0
0.22
0.11
0.15
0.24
0.15
0.44
0.41
0.54
0.5
0.52
0.53
0.82
0.84
0.92
0.93
0.95
0.93
OUTSOURCING_COSTS
0.0
29.41
14.71
20.81
32.87
20.81
59.26
55.15
72.43
67.79
69.85
71.4
110.29
114.12
125.0
125.88
128.38
125.88
